n = 85;
rows = 184;
supports = [|
  {1},2..9,
 |{1},78..85,
 |{2},{1},
 |{2},3..10,
 |{2},79..85,
 |{3},1..2,
 |{3},4..11,
 |{3},80..85,
 |{4},1..3,
 |{4},5..12,
 |{4},81..85,
 |{5},1..4,
 |{5},6..13,
 |{5},82..85,
 |{6},1..5,
 |{6},7..14,
 |{6},83..85,
 |{7},1..6,
 |{7},8..15,
 |{7},84..85,
 |{8},1..7,
 |{8},9..16,
 |{8},{85},
 |{9},1..8,
 |{9},10..17,
 |{10},2..9,
 |{10},11..18,
 |{11},3..10,
 |{11},12..19,
 |{12},4..11,
 |{12},13..20,
 |{13},5..12,
 |{13},14..21,
 |{14},6..13,
 |{14},15..22,
 |{15},7..14,
 |{15},16..23,
 |{16},8..15,
 |{16},17..24,
 |{17},9..16,
 |{17},18..25,
 |{18},10..17,
 |{18},19..26,
 |{19},11..18,
 |{19},20..27,
 |{20},12..19,
 |{20},21..28,
 |{21},13..20,
 |{21},22..29,
 |{22},14..21,
 |{22},23..30,
 |{23},15..22,
 |{23},24..31,
 |{24},16..23,
 |{24},25..32,
 |{25},17..24,
 |{25},26..33,
 |{26},18..25,
 |{26},27..34,
 |{27},19..26,
 |{27},28..35,
 |{28},20..27,
 |{28},29..36,
 |{29},21..28,
 |{29},30..37,
 |{30},22..29,
 |{30},31..38,
 |{31},23..30,
 |{31},32..39,
 |{32},24..31,
 |{32},33..40,
 |{33},25..32,
 |{33},34..41,
 |{34},26..33,
 |{34},35..42,
 |{35},27..34,
 |{35},36..43,
 |{36},28..35,
 |{36},37..44,
 |{37},29..36,
 |{37},38..45,
 |{38},30..37,
 |{38},39..46,
 |{39},31..38,
 |{39},40..47,
 |{40},32..39,
 |{40},41..48,
 |{41},33..40,
 |{41},42..49,
 |{42},34..41,
 |{42},43..50,
 |{43},35..42,
 |{43},44..51,
 |{44},36..43,
 |{44},45..52,
 |{45},37..44,
 |{45},46..53,
 |{46},38..45,
 |{46},47..54,
 |{47},39..46,
 |{47},48..55,
 |{48},40..47,
 |{48},49..56,
 |{49},41..48,
 |{49},50..57,
 |{50},42..49,
 |{50},51..58,
 |{51},43..50,
 |{51},52..59,
 |{52},44..51,
 |{52},53..60,
 |{53},45..52,
 |{53},54..61,
 |{54},46..53,
 |{54},55..62,
 |{55},47..54,
 |{55},56..63,
 |{56},48..55,
 |{56},57..64,
 |{57},49..56,
 |{57},58..65,
 |{58},50..57,
 |{58},59..66,
 |{59},51..58,
 |{59},60..67,
 |{60},52..59,
 |{60},61..68,
 |{61},53..60,
 |{61},62..69,
 |{62},54..61,
 |{62},63..70,
 |{63},55..62,
 |{63},64..71,
 |{64},56..63,
 |{64},65..72,
 |{65},57..64,
 |{65},66..73,
 |{66},58..65,
 |{66},67..74,
 |{67},59..66,
 |{67},68..75,
 |{68},60..67,
 |{68},69..76,
 |{69},61..68,
 |{69},70..77,
 |{70},62..69,
 |{70},71..78,
 |{71},63..70,
 |{71},72..79,
 |{72},64..71,
 |{72},73..80,
 |{73},65..72,
 |{73},74..81,
 |{74},66..73,
 |{74},75..82,
 |{75},67..74,
 |{75},76..83,
 |{76},68..75,
 |{76},77..84,
 |{77},69..76,
 |{77},78..85,
 |{78},70..77,
 |{78},79..85,
 |{78},{1},
 |{79},71..78,
 |{79},80..85,
 |{79},1..2,
 |{80},72..79,
 |{80},81..85,
 |{80},1..3,
 |{81},73..80,
 |{81},82..85,
 |{81},1..4,
 |{82},74..81,
 |{82},83..85,
 |{82},1..5,
 |{83},75..82,
 |{83},84..85,
 |{83},1..6,
 |{84},76..83,
 |{84},{85},
 |{84},1..7,
 |{85},77..84,
 |{85},1..8 |];

t = 219;

indexes = [|
    0,6,
  | 0,24,
  | 0,30,
  | 0,60,
  | 0,77,
  | 1,8,
  | 1,13,
  | 1,26,
  | 1,50,
  | 1,73,
  | 1,76,
  | 1,79,
  | 2,23,
  | 2,58,
  | 2,59,
  | 2,67,
  | 2,75,
  | 3,15,
  | 3,21,
  | 3,61,
  | 3,68,
  | 3,69,
  | 3,84,
  | 4,23,
  | 4,27,
  | 4,40,
  | 4,58,
  | 5,18,
  | 5,51,
  | 5,63,
  | 5,67,
  | 5,83,
  | 6,15,
  | 6,26,
  | 6,38,
  | 6,60,
  | 6,77,
  | 6,79,
  | 7,10,
  | 7,37,
  | 7,41,
  | 7,57,
  | 7,66,
  | 8,13,
  | 8,49,
  | 8,50,
  | 8,61,
  | 9,10,
  | 9,48,
  | 10,37,
  | 10,41,
  | 10,48,
  | 10,66,
  | 11,29,
  | 11,36,
  | 11,53,
  | 12,20,
  | 12,25,
  | 12,34,
  | 12,35,
  | 12,54,
  | 12,81,
  | 13,23,
  | 13,25,
  | 13,39,
  | 13,40,
  | 13,43,
  | 13,49,
  | 13,73,
  | 14,31,
  | 14,33,
  | 14,56,
  | 14,57,
  | 14,71,
  | 15,26,
  | 15,38,
  | 15,50,
  | 15,61,
  | 15,84,
  | 16,46,
  | 16,64,
  | 16,72,
  | 17,19,
  | 17,28,
  | 17,34,
  | 17,44,
  | 17,54,
  | 17,65,
  | 18,30,
  | 18,51,
  | 18,67,
  | 18,74,
  | 18,77,
  | 18,79,
  | 19,21,
  | 19,28,
  | 19,42,
  | 19,62,
  | 19,65,
  | 19,69,
  | 20,32,
  | 20,34,
  | 20,52,
  | 20,81,
  | 21,62,
  | 21,64,
  | 21,68,
  | 21,69,
  | 22,36,
  | 22,47,
  | 22,53,
  | 22,78,
  | 23,40,
  | 23,58,
  | 23,59,
  | 23,73,
  | 24,30,
  | 24,60,
  | 25,35,
  | 25,43,
  | 25,49,
  | 25,54,
  | 26,50,
  | 26,79,
  | 27,40,
  | 28,49,
  | 28,54,
  | 28,61,
  | 28,69,
  | 29,53,
  | 29,70,
  | 29,72,
  | 30,51,
  | 30,77,
  | 31,45,
  | 31,46,
  | 31,55,
  | 31,56,
  | 31,71,
  | 32,34,
  | 32,37,
  | 32,44,
  | 32,52,
  | 32,80,
  | 33,37,
  | 33,44,
  | 33,57,
  | 33,65,
  | 33,71,
  | 33,80,
  | 34,44,
  | 34,54,
  | 35,39,
  | 35,43,
  | 35,81,
  | 36,53,
  | 37,52,
  | 37,57,
  | 37,66,
  | 37,80,
  | 38,60,
  | 38,82,
  | 38,84,
  | 39,40,
  | 39,43,
  | 42,55,
  | 42,62,
  | 42,65,
  | 42,71,
  | 44,65,
  | 44,80,
  | 45,46,
  | 45,56,
  | 45,70,
  | 45,72,
  | 46,55,
  | 46,62,
  | 46,64,
  | 46,72,
  | 47,56,
  | 47,78,
  | 48,52,
  | 48,66,
  | 49,54,
  | 49,61,
  | 50,61,
  | 51,63,
  | 52,66,
  | 52,81,
  | 53,70,
  | 53,78,
  | 55,62,
  | 55,71,
  | 56,70,
  | 56,78,
  | 58,75,
  | 59,67,
  | 59,73,
  | 59,76,
  | 60,82,
  | 61,69,
  | 62,64,
  | 63,67,
  | 63,75,
  | 63,83,
  | 64,68,
  | 65,71,
  | 67,74,
  | 67,75,
  | 67,76,
  | 68,84,
  | 70,72,
  | 70,78,
  | 73,76,
  | 74,76,
  | 74,79,
  | 76,79,
  | 77,79,
  | 82,84 |];

